
Log started (V11.0.0) Tue Apr 15 18:39:58 2008

Tried aggregator 1 time.
Reduced MIP has 110 rows, 1001 columns, and 2010 nonzeros.
Presolve time =   -0.00 sec.
Clique table members: 100.
MIP emphasis: balance optimality and feasibility.
MIP search method: dynamic search.
Parallel mode: none, using 1 thread.
Root relaxation solution time =    0.03 sec.

        Nodes                                         Cuts/
   Node  Left     Objective  IInf  Best Integer     Best Node    ItCnt     Gap

*     0+    0                         5256.0000      195.7172      228   96.28%
*     0+    0                          219.0000      195.7172      228   10.63%
      0     0      196.1025    26      219.0000      Fract: 9      241   10.46%
*     0+    0                          215.0000      196.1025      241    8.79%
      0     0      196.4252    37      215.0000       Cuts: 8      274    8.64%
*     0+    0                          209.0000      196.4252      274    6.02%
      0     0      196.5263    43      209.0000       Cuts: 7      287    5.97%
*     0+    0                          208.0000      196.5263      287    5.52%
      0     0      196.5629    47      208.0000       Cuts: 2      293    5.50%
*     0+    0                          206.0000      196.5629      293    4.58%
      0     0      196.5796    44      206.0000       Cuts: 3      301    4.57%
      0     0      196.5971    48      206.0000       Cuts: 2      306    4.56%
      0     0      196.5987    52      206.0000       Cuts: 2      308    4.56%
*     0+    0                          203.0000      196.5987      308    3.15%
*     0+    0                          200.0000      196.5987      308    1.70%

Repeating presolve.
Tried aggregator 1 time.
MIP Presolve eliminated 0 rows and 509 columns.
Aggregator did 5 substitutions.
Reduced MIP has 105 rows, 487 columns, and 982 nonzeros.
Tried aggregator 1 time.
Represolve time =    0.02 sec.
Clique table members: 95.
MIP emphasis: balance optimality and feasibility.
MIP search method: dynamic search.
Parallel mode: none, using 1 thread.
Root relaxation solution time =   -0.00 sec.

        Nodes                                         Cuts/
   Node  Left     Objective  IInf  Best Integer     Best Node    ItCnt     Gap

      0     0      197.0000    33      200.0000      197.0000      165    1.50%
      0     2      197.0000    33      200.0000      197.0000      165    1.50%
    100    55    infeasible            200.0000      197.0000     3479    1.50%
    200   125      199.0000    43      200.0000      197.0000     9631    1.50%
*   250+   77                          199.0000      197.0000    12254    1.01%
    300   111      197.3658    64      199.0000      197.0000    14878    1.01%
    400   167      198.0000    27      199.0000      198.0000    22355    0.50%
    500   203      198.0000    15      199.0000      198.0000    30926    0.50%
    600   157    infeasible            199.0000      198.0000    39398    0.50%
    700   108    infeasible            199.0000      198.0000    52223    0.50%
    800    61    infeasible            199.0000      198.0000    67170    0.50%
    900    85      198.0000    56      199.0000      198.0000    82769    0.50%
*   954     0      integral     0      198.0000      198.0000    91421    0.00%

Cover cuts applied:  332
Flow cuts applied:  2
Mixed integer rounding cuts applied:  8
Zero-half cuts applied:  1
Gomory fractional cuts applied:  3

Solution pool: 10 solutions saved.

MIP - Integer optimal solution:  Objective = 1.9800000000e+002
Solution time =    8.98 sec.  Iterations = 91421  Nodes = 955


Incumbent solution
Variable Name           Solution Value
Cmax                        198.000000
X_1_8                         1.000000
X_2_9                         1.000000
X_3_1                         1.000000
X_4_3                         1.000000
X_5_2                         1.000000
X_6_1                         1.000000
X_7_6                         1.000000
X_8_10                        1.000000
X_9_8                         1.000000
X_10_8                        1.000000
X_11_6                        1.000000
X_12_9                        1.000000
X_13_2                        1.000000
X_14_4                        1.000000
X_15_4                        1.000000
X_16_7                        1.000000
X_17_2                        1.000000
X_18_1                        1.000000
X_19_1                        1.000000
X_20_1                        1.000000
X_21_9                        1.000000
X_22_8                        1.000000
X_23_5                        1.000000
X_24_2                        1.000000
X_25_6                        1.000000
X_26_3                        1.000000
X_27_4                        1.000000
X_28_6                        1.000000
X_29_1                        1.000000
X_30_1                        1.000000
X_31_3                        1.000000
X_32_2                        1.000000
X_33_7                        1.000000
X_34_9                        1.000000
X_35_7                        1.000000
X_36_9                        1.000000
X_37_8                        1.000000
X_38_5                        1.000000
X_39_7                        1.000000
X_40_5                        1.000000
X_41_4                        1.000000
X_42_4                        1.000000
X_43_4                        1.000000
X_44_4                        1.000000
X_45_10                       1.000000
X_46_9                        1.000000
X_47_7                        1.000000
X_48_10                       1.000000
X_49_7                        1.000000
X_50_2                        1.000000
X_51_7                        1.000000
X_52_1                        1.000000
X_53_6                        1.000000
X_54_3                        1.000000
X_55_5                        1.000000
X_56_4                        1.000000
X_57_10                       1.000000
X_58_9                        1.000000
X_59_3                        1.000000
X_60_8                        1.000000
X_61_3                        1.000000
X_62_4                        1.000000
X_63_7                        1.000000
X_64_3                        1.000000
X_65_5                        1.000000
X_66_6                        1.000000
X_67_6                        1.000000
X_68_5                        1.000000
X_69_10                       1.000000
X_70_7                        1.000000
X_71_10                       1.000000
X_72_3                        1.000000
X_73_2                        1.000000
X_74_4                        1.000000
X_75_5                        1.000000
X_76_9                        1.000000
X_77_5                        1.000000
X_78_7                        1.000000
X_79_1                        1.000000
X_80_2                        1.000000
X_81_10                       1.000000
X_82_5                        1.000000
X_83_4                        1.000000
X_84_2                        1.000000
X_85_6                        1.000000
X_86_6                        1.000000
X_87_10                       1.000000
X_88_8                        1.000000
X_89_8                        1.000000
X_90_9                        1.000000
X_91_1                        1.000000
X_92_4                        1.000000
X_93_2                        1.000000
X_94_8                        1.000000
X_95_3                        1.000000
X_96_4                        1.000000
X_97_6                        1.000000
X_98_3                        1.000000
X_99_2                        1.000000
X_100_8                       1.000000
All other variables in the range 1-1001 are 0.
